Set parameter Username
Academic license - for non-commercial use only - expires 2024-10-29
Set parameter LazyConstraints to value 1
Set parameter TimeLimit to value 600
Gurobi Optimizer version 10.0.0 build v10.0.0rc2 (linux64)

CPU model: AMD FX(tm)-4300 Quad-Core Processor, instruction set [SSE2|AVX]
Thread count: 2 physical cores, 4 logical processors, using up to 4 threads

Optimize a model with 4083 rows, 1000 columns and 4324 nonzeros
Model fingerprint: 0x4d82e98c
Variable types: 0 continuous, 1000 integer (1000 binary)
Coefficient statistics:
  Matrix range     [1e+00, 1e+00]
  Objective range  [1e+00, 1e+01]
  Bounds range     [1e+00, 1e+00]
  RHS range        [1e+00, 1e+00]
Presolve removed 4011 rows and 8 columns
Presolve time: 0.00s
Presolved: 72 rows, 992 columns, 294 nonzeros
Variable types: 0 continuous, 992 integer (992 binary)

Root relaxation: objective 2.020000e+02, 71 iterations, 0.00 seconds (0.00 work units)

    Nodes    |    Current Node    |     Objective Bounds      |     Work
 Expl Unexpl |  Obj  Depth IntInf | Incumbent    BestBd   Gap | It/Node Time

     0     0  202.00000    0    -          -  202.00000      -     -    3s
     0     0  204.00000    0    -          -  204.00000      -     -    4s
     0     0  204.00000    0    -          -  204.00000      -     -    5s
     0     0  208.00000    0    -          -  208.00000      -     -    6s
     0     0  209.00000    0    -          -  209.00000      -     -    7s
     0     0  209.00000    0    -          -  209.00000      -     -    7s
     0     0  209.50000    0    3          -  209.50000      -     -    7s
     0     0  292.00000    0    -          -  292.00000      -     -   10s
     0     0  292.00000    0    -          -  292.00000      -     -   10s
     0     0  293.00000    0    -          -  293.00000      -     -   11s
     0     0  294.00000    0    -          -  294.00000      -     -   12s
     0     0  295.00000    0    -          -  295.00000      -     -   13s
     0     0  296.00000    0    -          -  296.00000      -     -   14s
     0     0  297.00000    0    -          -  297.00000      -     -   14s
     0     0  298.00000    0    -          -  298.00000      -     -   15s
     0     0  300.00000    0    -          -  300.00000      -     -   16s
     0     0  303.00000    0    -          -  303.00000      -     -   17s
H    0     0                     964.0000000  303.00000  68.6%     -   18s
     0     0  303.00000    0    3  964.00000  303.00000  68.6%     -   18s
H    0     0                     844.0000000  334.50000  60.4%     -   27s
     0     0  334.50000    0    6  844.00000  334.50000  60.4%     -   27s
     0     0  351.00000    0    -  844.00000  351.00000  58.4%     -   36s
     0     0  352.00000    0    -  844.00000  352.00000  58.3%     -   37s
     0     0  352.00000    0    -  844.00000  352.00000  58.3%     -   37s
     0     0  352.00000    0    -  844.00000  352.00000  58.3%     -   38s
     0     0  352.00000    0    -  844.00000  352.00000  58.3%     -   39s
H    0     0                     790.0000000  352.50000  55.4%     -   40s
     0     0  352.50000    0    6  790.00000  352.50000  55.4%     -   40s
     0     0  370.00000    0    -  790.00000  370.00000  53.2%     -   42s
     0     0  370.00000    0    -  790.00000  370.00000  53.2%     -   42s
     0     0  370.00000    0    6  790.00000  370.00000  53.2%     -   42s
     0     0  371.00000    0    9  790.00000  371.00000  53.0%     -   53s
     0     0  371.00000    0    9  790.00000  371.00000  53.0%     -   56s
     0     2  378.25000    0    9  790.00000  378.25000  52.1%     -   63s
H    5     7                     776.0000000  379.50000  51.1%  37.4   66s
    23    29  388.50000    8   10  776.00000  387.65000  50.0%  39.1   74s
H   25    29                     775.0000000  387.65000  50.0%  37.0   75s
    65    79  388.54167   20   14  775.00000  387.65000  50.0%  17.5   86s
    79    95  388.69231   26   12  775.00000  387.65000  50.0%  16.3   91s
    95   111  388.83333   31   10  775.00000  387.65000  50.0%  14.3   95s
   115   133  389.00000   39    -  775.00000  387.65000  50.0%  12.7  100s
H  138   135                     774.0000000  387.65000  49.9%  11.6  107s
H  146   155                     769.0000000  387.65000  49.6%  11.6  110s
H  148   155                     765.0000000  387.65000  49.3%  11.6  111s
H  149   155                     764.0000000  387.65000  49.3%  11.5  112s
   159   185  389.66667   49    8  764.00000  387.65000  49.3%  11.0  116s
H  177   186                     763.0000000  387.65000  49.2%  10.4  121s
H  186   186                     758.0000000  387.65000  48.9%   9.9  124s
   191   226  390.20000   62    8  758.00000  387.65000  48.9%   9.9  125s
H  220   226                     754.0000000  387.65000  48.6%   9.1  133s
   231   256  390.50000   78    5  754.00000  387.65000  48.6%   8.9  136s
   279   301  393.33333   96    5  754.00000  387.65000  48.6%   8.6  149s
   325   343  394.20000  111    7  754.00000  387.65000  48.6%   8.4  160s
H  373   354                     747.0000000  387.65000  48.1%   8.1  172s
   390   381  398.00000  132    -  747.00000  387.67890  48.1%   8.0  176s
   452   425  389.36000    6   14  747.00000  387.67890  48.1%   7.8  193s
   483   480  389.44444   16   14  747.00000  387.67890  48.1%   7.8  203s
   535   504  389.72727   34    8  747.00000  387.67890  48.1%   7.5  217s
   565   557  390.83333   41   16  747.00000  387.84722  48.1%   7.7  224s
   633   626  388.86667   12   10  747.00000  387.84722  48.1%   7.6  243s
   703   692  389.85714   42    7  747.00000  387.84722  48.1%   7.6  262s
   781   701  389.72727   32    9  747.00000  387.84722  48.1%   7.4  283s
   784   703  389.80000   60   15  747.00000  387.84722  48.1%   7.4  299s
   787   705  396.43200  110   23  747.00000  396.43200  46.9%   7.3  301s
   788   706  398.77038   33   21  747.00000  398.77038  46.6%   7.3  306s
H  790   707                     733.0000000  404.20963  44.9%   7.3  310s
   792   708  405.44511   21   29  733.00000  405.44511  44.7%   7.3  315s
   795   710  408.36558   96   26  733.00000  408.36558  44.3%   7.3  320s
H  795   710                     704.0000000  409.05184  41.9%   7.3  320s
   798   712  410.44801  144   31  704.00000  410.44801  41.7%   7.2  325s
   801   714  414.64403   32   28  704.00000  414.64403  41.1%   7.2  331s
H  802   715                     693.0000000  416.99935  39.8%   7.2  333s
   803   716  416.99935  159   34  693.00000  416.99935  39.8%   7.2  335s
H  805   719                     680.0000000  417.72589  38.6%   9.3  338s
   806   721  419.25376   13   35  680.00000  418.44104  38.5%   9.4  340s
   816   729  422.20624   15   52  680.00000  420.17142  38.2%  10.4  345s
   828   737  424.84907   17   56  680.00000  421.86104  38.0%  12.3  351s
   840   745  428.45482   18   62  680.00000  421.86104  38.0%  14.2  355s
   848   751  430.63322   19   65  680.00000  421.86104  38.0%  15.8  361s
   860   759  432.62531   21   57  680.00000  421.86104  38.0%  17.9  365s
   874   765  431.52828   18   55  680.00000  421.86104  38.0%  18.6  370s
   893   778  432.30879   18   51  680.00000  421.86104  38.0%  19.0  377s
   906   800  432.66951   28   48  680.00000  421.86104  38.0%  19.3  381s
   921   809  432.68433   30   48  680.00000  421.86104  38.0%  19.4  385s
   935   823  432.71382   32   47  680.00000  421.86104  38.0%  19.6  390s
   953   841  432.74718   35   49  680.00000  421.86104  38.0%  19.6  396s
   977   854  432.79877   39   47  680.00000  421.86104  38.0%  19.7  404s
   998   869  432.81184   42   45  680.00000  421.86104  38.0%  19.7  410s
  1020   882  432.81960   44   45  680.00000  421.86104  38.0%  19.8  417s
  1041   901  432.85717   48   44  680.00000  421.86104  38.0%  19.9  423s
  1067   897  432.93150   51   44  680.00000  421.86104  38.0%  20.0  430s
  1094   940  433.00187   55   46  680.00000  421.86104  38.0%  20.1  440s
  1123   958  432.96550   58   44  680.00000  421.86104  38.0%  20.1  449s
  1151   956  432.97068   62   45  680.00000  421.86104  38.0%  20.3  457s
  1158   983  433.00342   63   48  680.00000  421.86104  38.0%  20.3  460s
  1188   990  433.10470   67   46  680.00000  421.86104  38.0%  20.4  469s
  1205  1024  433.11143   69   47  680.00000  421.86104  38.0%  20.5  475s
  1244  1040  433.13575   72   43  680.00000  421.86104  38.0%  20.6  488s
  1273  1038  433.15489   76   43  680.00000  421.86104  38.0%  20.8  497s
  1281  1077  433.22192   77   44  680.00000  421.86104  38.0%  20.9  500s
  1323  1092  433.26751   83   39  680.00000  421.86104  38.0%  21.0  513s
  1352  1129  433.33603   88   34  680.00000  421.86104  38.0%  21.2  521s
  1398  1123  433.41941   94   38  680.00000  421.86104  38.0%  21.1  534s
  1408  1140  433.46400   95   38  680.00000  421.86104  38.0%  21.1  538s
  1413  1138  436.38182   96   28  680.00000  421.86104  38.0%  21.2  540s
  1428  1140  433.46682   97   35  680.00000  421.86104  38.0%  21.2  545s
  1487  1229  433.53294  103   37  680.00000  421.86104  38.0%  21.2  564s
  1543  1226  433.59633  109   38  680.00000  421.86104  38.0%  21.3  579s
  1559  1292  433.63065  111   35  680.00000  421.86104  38.0%  21.2  585s

Cutting planes:
  User: 68
  Gomory: 5
  Lift-and-project: 1
  MIR: 2
  Flow cover: 7
  Zero half: 2
  Lazy constraints: 99

Explored 1630 nodes (34941 simplex iterations) in 605.23 seconds (4.52 work units)
Thread count was 4 (of 4 available processors)

Solution count 10: 680 693 704 ... 765

Time limit reached
Best objective 6.800000000000e+02, best bound 4.220000000000e+02, gap 37.9412%

User-callback calls 5417, time in user-callback 600.21 sec
